qbf_easy_train/easy_2157_UNSAT.qdimacs
p cnf 32 87
a 8 25 30 0
e 1 2 3 4 5 6 7 9 10 11 12 13 14 15 16 17 18 19 20 21 22 23 24 26 27 28 29 31 32 0
-3 -1 0
-3 -2 0
1 2 3 0
-4 -3 0
-4 1 0
3 -1 4 0
6 2 0
6 5 0
-2 -5 -6 0
6 -7 0
-6 -7 0
8 4 0
8 -7 0
-4 7 -8 0
-10 9 0
-10 1 0
-9 -1 10 0
-11 -6 0
-11 -2 0
6 2 11 0
11 -6 -12 0
-11 6 -12 0
11 6 12 0
-11 -6 12 0
-10 12 -13 0
10 -12 -13 0
-10 -12 13 0
10 12 13 0
-2 14 -15 0
2 -14 -15 0
-2 -14 15 0
2 14 15 0
16 1 0
16 15 0
-1 -15 -16 0
-16 -3 -17 0
16 3 -17 0
-16 3 17 0
16 -3 17 0
19 -18 0
19 -16 0
18 16 -19 0
17 19 -20 0
-17 -19 -20 0
17 -19 20 0
-17 19 20 0
21 -11 0
21 -1 0
11 1 -21 0
-22 -20 0
-22 -21 0
20 21 22 0
-23 -13 0
-23 -22 0
13 22 23 0
-14 5 -24 0
14 -5 -24 0
-14 -5 24 0
14 5 24 0
-25 -23 0
-25 -24 0
23 24 25 0
-26 -8 0
-26 -25 0
8 25 26 0
-29 -27 0
-29 -28 0
27 28 29 0
27 15 -30 0
-27 -15 -30 0
27 -15 30 0
-27 15 30 0
31 29 0
31 30 0
-29 -30 -31 0
32 26 0
32 31 0
-26 -31 -32 0
7 17 23 0
27 23 -5 -29 13 -19 0
-24 4 -17 -8 -15 14 5 0
-31 8 -14 -20 2 27 -16 0
-3 -8 13 -1 -27 -2 0
-11 13 -18 0
-9 25 -19 -4 -11 0
23 -2 -5 21 7 19 0
32 0
