sat_easy_train/easy_2157_UNSAT.dimacs
p cnf 133 452
3 1 0
3 2 0
-1 -2 -3 0
-4 5 -6 0
4 -5 -6 0
-4 -5 6 0
4 5 6 0
8 6 0
8 7 0
-6 -7 -8 0
10 9 0
10 -5 0
-9 5 -10 0
-11 12 -13 0
11 -12 -13 0
-11 -12 13 0
11 12 13 0
10 -13 -14 0
-10 13 -14 0
10 13 14 0
-10 -13 14 0
-15 8 0
-15 -14 0
-8 14 15 0
-16 3 0
-16 15 0
-3 -15 16 0
5 18 -19 0
-5 -18 -19 0
5 -18 19 0
-5 18 19 0
-17 19 -20 0
17 -19 -20 0
-17 -19 20 0
17 19 20 0
-22 21 0
-22 17 0
-21 -17 22 0
-23 22 0
-23 -22 0
24 -20 0
24 23 0
20 -23 -24 0
-16 24 -25 0
16 -24 -25 0
-16 -24 25 0
16 24 25 0
-3 -26 -27 0
3 26 -27 0
-3 26 27 0
3 -26 27 0
-26 -22 -29 0
26 22 -29 0
-26 22 29 0
26 -22 29 0
-30 -28 0
-30 29 0
28 -29 30 0
-31 -11 0
-31 -13 0
11 13 31 0
-30 -31 -32 0
30 31 -32 0
-30 31 32 0
30 -31 32 0
33 27 0
33 32 0
-27 -32 -33 0
-34 25 0
-34 -33 0
-25 33 34 0
-35 4 0
-35 -18 0
-4 18 35 0
36 18 0
36 10 0
-18 -10 -36 0
-7 37 -38 0
7 -37 -38 0
-7 -37 38 0
7 37 38 0
-39 36 0
-39 -38 0
-36 38 39 0
40 15 0
40 -39 0
-15 39 -40 0
40 31 -41 0
-40 -31 -41 0
40 -31 41 0
-40 31 41 0
28 -14 -42 0
-28 14 -42 0
28 14 42 0
-28 -14 42 0
44 -42 0
44 -43 0
42 43 -44 0
-41 44 -45 0
41 -44 -45 0
-41 -44 45 0
41 44 45 0
46 -35 0
46 45 0
35 -45 -46 0
47 16 0
47 -13 0
-16 13 -47 0
-48 -18 0
-48 5 0
18 -5 48 0
2 48 -49 0
-2 -48 -49 0
2 -48 49 0
-2 48 49 0
-47 49 -50 0
47 -49 -50 0
-47 -49 50 0
47 49 50 0
-51 46 0
-51 -50 0
-46 50 51 0
52 -28 0
52 -12 0
28 12 -52 0
4 18 -53 0
-4 -18 -53 0
4 -18 53 0
-4 18 53 0
-54 53 0
-54 40 0
-53 -40 54 0
-52 -54 -55 0
52 54 -55 0
-52 54 55 0
52 -54 55 0
56 -30 0
56 55 0
30 -55 -56 0
57 16 0
57 -56 0
-16 56 -57 0
-58 51 0
-58 -57 0
-51 57 58 0
59 -34 0
59 -58 0
34 58 -59 0
-60 -28 0
-60 -4 0
28 4 60 0
-11 -52 -61 0
11 52 -61 0
-11 52 61 0
11 -52 61 0
62 -18 0
62 61 0
18 -61 -62 0
63 49 0
63 -62 0
-49 62 -63 0
10 -5 -64 0
-10 5 -64 0
10 5 64 0
-10 -5 64 0
-63 -64 -65 0
63 64 -65 0
-63 64 65 0
63 -64 65 0
66 -60 0
66 -65 0
60 65 -66 0
-37 -22 -67 0
37 22 -67 0
-37 22 67 0
37 -22 67 0
68 17 0
68 22 0
-17 -22 -68 0
30 -68 -69 0
-30 68 -69 0
30 68 69 0
-30 -68 69 0
70 -67 0
70 -69 0
67 69 -70 0
71 -37 0
71 43 0
37 -43 -71 0
-71 72 0
71 72 0
-73 70 0
-73 -72 0
-70 72 73 0
74 38 0
74 11 0
-38 -11 -74 0
-74 31 -75 0
74 -31 -75 0
-74 -31 75 0
74 31 75 0
-77 76 0
-77 -53 0
-76 53 77 0
-78 -75 0
-78 -77 0
75 77 78 0
-73 78 -79 0
73 -78 -79 0
-73 -78 79 0
73 78 79 0
-80 10 0
-80 2 0
-10 -2 80 0
81 -10 0
81 -80 0
10 80 -81 0
82 1 0
82 -81 0
-1 81 -82 0
13 -26 -83 0
-13 26 -83 0
13 26 83 0
-13 -26 83 0
-83 14 -84 0
83 -14 -84 0
-83 -14 84 0
83 14 84 0
85 82 0
85 84 0
-82 -84 -85 0
79 -85 -86 0
-79 85 -86 0
79 85 86 0
-79 -85 86 0
-87 18 0
-87 42 0
-18 -42 87 0
88 -11 0
88 87 0
11 -87 -88 0
-89 86 0
-89 88 0
-86 -88 89 0
90 2 0
90 3 0
-2 -3 -90 0
91 -18 0
91 90 0
18 -90 -91 0
92 -38 0
92 21 0
38 -21 -92 0
93 7 0
93 -2 0
-7 2 -93 0
-94 -92 0
-94 93 0
92 -93 94 0
91 94 -95 0
-91 -94 -95 0
91 -94 95 0
-91 94 95 0
-96 -30 0
-96 -19 0
30 19 96 0
-97 -18 0
-97 43 0
18 -43 97 0
-19 38 -98 0
19 -38 -98 0
-19 -38 98 0
19 38 98 0
-97 98 -99 0
97 -98 -99 0
-97 -98 99 0
97 98 99 0
100 -22 0
100 1 0
22 -1 -100 0
-101 99 0
-101 -100 0
-99 100 101 0
48 29 -102 0
-48 -29 -102 0
48 -29 102 0
-48 29 102 0
-16 -62 -103 0
16 62 -103 0
-16 62 103 0
16 -62 103 0
104 -102 0
104 -103 0
102 103 -104 0
80 68 -105 0
-80 -68 -105 0
80 -68 105 0
-80 68 105 0
106 104 0
106 105 0
-104 -105 -106 0
107 -101 0
107 -106 0
101 106 -107 0
-108 96 0
-108 107 0
-96 -107 108 0
109 95 0
109 108 0
-95 -108 -109 0
110 89 0
110 109 0
-89 -109 -110 0
-66 -110 -111 0
66 110 -111 0
-66 110 111 0
66 -110 111 0
112 -59 0
112 111 0
59 -111 -112 0
-113 -4 0
-113 80 0
4 -80 113 0
113 68 -114 0
-113 -68 -114 0
113 -68 114 0
-113 68 114 0
-115 114 0
-115 7 0
-114 -7 115 0
52 -42 -116 0
-52 42 -116 0
52 42 116 0
-52 -42 116 0
117 115 0
117 -116 0
-115 116 -117 0
54 -36 -118 0
-54 36 -118 0
54 36 118 0
-54 -36 118 0
117 -118 -119 0
-117 118 -119 0
117 118 119 0
-117 -118 119 0
15 -53 -120 0
-15 53 -120 0
15 53 120 0
-15 -53 120 0
-121 113 0
-121 -120 0
-113 120 121 0
13 -121 -122 0
-13 121 -122 0
13 121 122 0
-13 -121 122 0
123 39 0
123 28 0
-39 -28 -123 0
-124 -122 0
-124 123 0
122 -123 124 0
119 124 -125 0
-119 -124 -125 0
119 -124 125 0
-119 124 125 0
-126 -9 0
-126 -11 0
9 11 126 0
-127 3 0
-127 -55 0
-3 55 127 0
127 -1 -128 0
-127 1 -128 0
127 1 128 0
-127 -1 128 0
129 -126 0
129 -128 0
126 128 -129 0
81 49 -130 0
-81 -49 -130 0
81 -49 130 0
-81 49 130 0
-131 129 0
-131 130 0
-129 -130 131 0
-132 125 0
-132 131 0
-125 -131 132 0
-133 112 0
-133 -132 0
-112 132 133 0
24 55 65 -34 0
-89 95 67 -94 109 0
127 -59 -95 -71 -82 0
-124 -88 0
25 -133 0
34 102 0
-45 -126 -33 -11 0
-123 -53 -27 103 10 0
-47 -58 0
5 40 -110 57 -52 -33 0
89 120 117 0
-131 2 54 58 -49 -90 0
21 -94 19 59 -64 -48 0
-58 10 -80 0
33 -82 -9 86 0
-53 47 69 0
50 113 -111 -133 67 -55 0
-13 84 15 31 0
-4 48 0
-130 -58 -75 -40 46 0
90 -39 0
-47 70 125 57 99 0
-9 54 118 68 43 36 0
-114 -33 -131 -74 -111 0
-79 16 -116 -26 -67 0
-128 -33 71 0
-89 125 0
1 3 37 -25 -94 0
-26 112 129 0
-114 8 112 -30 -79 94 0
18 -19 0
14 -69 111 -94 -83 -48 0
123 119 37 0
29 -46 0
-2 -71 0
-13 76 100 9 0
59 43 52 83 0
-104 36 0
2 105 0
78 33 1 -88 0
95 -81 72 29 0
66 105 2 85 0
-24 13 62 -60 -100 0
-6 -92 -110 -113 -1 -86 0
-17 -122 -38 -44 92 0
-112 52 -129 0
85 -69 -72 0
-77 -74 122 0
130 16 122 0
-118 127 -93 -63 0
69 -124 -128 0
33 16 65 0
125 48 0
-4 24 0
81 -42 -3 -83 0
21 -14 -100 -74 133 0
97 -26 125 70 0
-78 -65 -126 -114 0
-34 9 -64 129 126 0
133 0
